tsp_instances/TSP20/instance86.tsp
NODE_COORD_SECTION
0 188 192
1 117 21
2 56 175
3 34 17
4 98 140
5 74 83
6 122 185
7 99 134
8 188 16
9 67 127
10 128 16
11 81 17
12 118 194
13 138 130
14 151 37
15 55 25
16 61 45
17 15 112
18 176 186
19 176 161
