tsp_instances/TSP20/instance86.opt.tour
TOUR_SECTION
1
19
7
13
3
5
8
10
18
6
17
4
16
12
2
11
9
15
14
20
-1